db/data/3153098269326188782885980442807015142.z3.out
-------------------
2500.304521314
